Optimal - objective value 5809.00000000
      1 x_0_1                    1                       0
      4 x_1_0                    1                       0
     11 x_2_3                    1                       0
     14 x_3_2                    1                       0
     25 y_0_1_1_0                1                    1763
     30 y_0_1_2_3                1                     552
     32 y_0_1_3_2                1                     174
     54 y_1_0_2_3                1                    1080
     56 y_1_0_3_2                1                    1040
     87 y_2_3_3_2                1                    1200
